TOUR_SECTION
1
168
103
24
109
91
104
158
112
29
57
74
84
118
95
147
28
10
59
17
30
116
33
162
189
98
124
194
70
165
72
15
138
182
7
201
106
110
2
16
41
54
136
139
113
23
89
195
50
82
36
149
150
177
121
45
75
44
129
144
128
47
172
164
65
170
9
155
137
38
86
192
154
43
80
92
56
83
81
67
52
35
159
119
146
64
76
117
63
199
197
79
6
200
131
173
179
126
183
62
18
187
108
69
151
143
51
174
115
27
5
49
135
20
160
120
85
42
87
193
145
3
100
114
132
93
14
156
105
140
11
21
188
102
31
90
125
133
171
184
152
180
190
37
163
134
4
19
153
111
178
78
32
39
196
157
61
26
186
96
13
66
12
40
101
148
25
60
22
130
169
127
34
53
142
141
58
175
48
55
185
166
176
73
68
181
71
107
46
94
88
122
99
77
97
8
123
161
167
191
198
-1
EOF